44
250 259 252 
250 396 296 
389 403 
271 424 259 
493 399 
429 259 295 
255 389 268 
365 298 303 
351 280 251 
262 363 324 
483 444 
491 268 
353 257 372 
392 398 
311 311 295 
368 289 277 
380 432 
265 365 279 
491 393 
313 367 260 
338 330 308 
448 427 
289 328 251 
328 308 363 
414 265 303 
366 317 296 
372 383 
465 496 
421 322 254 
325 408 251 
406 292 282 
381 353 262 
316 335 260 
254 347 375 
256 336 331 
433 253 265 
363 252 259 
421 294 276 
275 402 250 
266 260 253 
303 316 329 
485 498 
357 283 268 
250 340 
